results/res_prop_muc/res_Cimatti_mathsat_cores/QF_LIA/ckt_PROP8_tf_10.smt.smt2.res
unsat
( c1088
  c1094
  c1110
  c1125
  c114
  c1145
  c1162
  c1180
  c1199
  c1210
  c1211
  c1213
  c1214
  c1215
  c1216
  c1217
  c1218
  c1219
  c1220
  c1221
  c1223
  c1224
  c13
  c150
  c166
  c169
  c170
  c235
  c254
  c279
  c287
  c301
  c303
  c304
  c366
  c385
  c398
  c40
  c444
  c454
  c471
  c474
  c545
  c556
  c572
  c580
  c638
  c648
  c65
  c665
  c69
  c742
  c751
  c773
  c781
  c849
  c866
  c931
  c940 )
